c read Graph
c width = 225
c time = 532 ms
c width = 20
c time = 784 ms
c width = 19
c time = 1001 ms
c width = 18
c time = 1173 ms
c width = 17
c time = 2540 ms
c width = 16
c time = 3935 ms
c width = 16
c time = 4112 ms
s td 207 17 238
b 1 1 2 18
b 2 2 3 18 19
b 3 15 16 33 34
b 4 3 18 19 35
b 5 15 33 34 51
b 6 188 205 206 223
b 7 204 220 221 237
b 8 188 206 223 224
b 9 204 220 236 237
b 10 3 4 5 21
b 11 3 5 20 21 36 52
b 12 5 20 21 36 38 52 54
b 13 5 21 36 38 52 54 70
b 14 5 21 38 52 54 70 86
b 15 5 21 23 38 39 54 70 86
b 16 5 23 38 39 54 56 70 72 86
b 17 5 23 39 54 56 70 72 86 88
b 18 5 23 39 56 70 72 86 88 104
b 19 5 23 39 41 56 57 72 86 88 104
b 20 5 23 41 56 57 72 74 86 88 90 104
b 21 56 72 73 74 90
b 22 5 23 41 57 72 74 86 88 90 104 106
b 23 5 23 41 57 74 86 88 90 104 106 122
b 24 88 104 105 106 122
b 25 5 23 41 57 59 74 75 86 90 104 106 122
b 26 5 9 23 27 41 43 59 74 75 86 90 104 106 122
b 27 5 9 23 25 27 41 43 59
b 28 25 41 42 43 59
b 29 5 7 9 23 25 41
b 30 7 8 9 25
b 31 5 6 7 23
b 32 7 23 24 25 41
b 33 9 25 26 27 43
b 34 9 27 43 59 74 75 86 90 93 104 106 109 122 124 125
b 35 74 75 90 93 106 108 109 124 125
b 36 90 106 107 108 124
b 37 74 75 90 92 93 108 109
b 38 74 90 91 92 108
b 39 9 27 43 59 75 86 93 104 106 109 122 124 125 138 154
b 40 86 104 120 122 138 154
b 41 104 120 121 122 138
b 42 86 103 104 120
b 43 120 137 138 154
b 44 9 27 43 59 75 93 106 109 122 124 125 138 140 154
b 45 9 27 43 59 75 93 109 122 124 125 138 140 154 156
b 46 9 27 43 59 75 93 109 124 125 138 140 141 154 156
b 47 9 27 43 59 75 93 109 125 138 140 141 154 156 157
b 48 9 27 43 59 75 93 109 125 138 141 154 156 157 175 193 211 227
b 49 9 27 43 59 75 93 109 125 141 143 157 161 175 177 193 211 227
b 50 125 141 143 157 159 161 175 177 193 211 227
b 51 143 159 160 161 177
b 52 159 175 176 177 193
b 53 141 143 157 158 159 161 175 177 193 211 227
b 54 125 141 142 143 159
b 55 9 27 43 59 75 93 109 125 127 143 161 177 193 211 227
b 56 9 27 43 59 75 93 109 127 143 161 177 193 195 211 227
b 57 9 27 43 59 75 93 109 127 143 161 177 179 195 211 227
b 58 9 27 43 59 75 77 93 109 127 143 161 179 195 211 227
b 59 9 27 43 59 61 77 93 109 127 143 161 179 195 211 227
b 60 9 27 43 61 77 93 109 111 127 143 161 179 195 211 227
b 61 9 27 43 61 77 93 95 111 127 143 161 179 195 211 227
b 62 9 27 43 61 77 95 111 127 129 143 147 161 163 179 195 211 227
b 63 9 27 43 61 77 95 111 129 147 163 179 195 197 211 215 227 231
b 64 9 27 43 61 77 95 111 113 129 147 163 179 197 215 231
b 65 9 27 43 61 77 79 95 113 129 147 163 179 197 215 231
b 66 9 27 43 45 61 79 95 113 129 147 163 179 197 215 231
b 67 27 43 44 45 61
b 68 9 27 45 61 79 95 113 129 131 147 163 179 197 215 231
b 69 113 129 130 131 147
b 70 9 27 45 61 63 79 95 113 131 147 163 179 197 215 231
b 71 9 27 45 63 79 95 97 113 131 147 163 179 197 215 231
b 72 79 95 96 97 113
b 73 45 61 62 63 79
b 74 61 77 78 79 95
b 75 95 111 112 113 129
b 76 179 195 197 211 213 215 227 231
b 77 195 211 213 227 229 231
b 78 195 211 212 213 229
b 79 211 227 228 229
b 80 213 229 230 231
b 81 197 213 214 215 231
b 82 179 195 196 197 213
b 83 111 127 129 143 145 147 161 163 179
b 84 129 145 146 147 163
b 85 145 161 162 163 179
b 86 111 127 128 129 145
b 87 127 143 144 145 161
b 88 77 93 94 95 111
b 89 93 109 110 111 127
b 90 43 59 60 61 77
b 91 59 75 76 77 93
b 92 161 177 178 179 195
b 93 177 193 194 195 211
b 94 109 125 126 127 143
b 95 138 154 156 157 175 193 209 211 227
b 96 138 154 156 157 175 191 193 209 227
b 97 175 191 192 193 209
b 98 138 154 156 157 173 175 191 209 227
b 99 138 154 156 172 173 191 209 227
b 100 154 172 173 191 209 225 227
b 101 209 225 226 227
b 102 154 172 173 191 207 209 225
b 103 191 207 208 209 225
b 104 154 172 173 189 191 207 225
b 105 173 189 190 191 207
b 106 154 172 188 189 207 225
b 107 188 189 207 224 225
b 108 188 189 206 207 224
b 109 154 171 172 188
b 110 138 154 155 156 172
b 111 157 173 174 175 191
b 112 193 209 210 211 227
b 113 122 138 139 140 156
b 114 106 122 123 124 140
b 115 41 57 58 59 75
b 116 72 88 89 90 106
b 117 23 39 40 41 57
b 118 70 86 87 88 104
b 119 54 70 71 72 88
b 120 38 54 55 56 72
b 121 5 21 22 23 39
b 122 52 69 70 86
b 123 36 52 53 54 70
b 124 20 36 37 38 54
b 125 3 20 35 36 52
b 126 3 19 20 35 36
b 127 11 12 13 29
b 128 9 11 13 27 29 45
b 129 63 79 80 81 97
b 130 100 116 117 118 134
b 131 81 97 98 99 115
b 132 13 29 45 63 64 81 82 100 102 118
b 133 13 29 45 63 81 82 99 100 102 118
b 134 102 116 118 131 132 134 147 150 163 179 197 215 231
b 135 100 102 116 118 131 132 134 147 163 179 197 215 231
b 136 100 102 115 116 118 131 132 147 163 179 197 215 231
b 137 9 27 45 63 79 97 113 115 131 147 163 179 197 215 231
b 138 99 100 102 115 116 118 131 147 163 179 197 215 231
b 139 9 27 45 63 79 81 97 115 131 147 163 179 197 215 231
b 140 9 27 45 63 81 97 99 115 131 147 163 179 197 215 231
b 141 9 13 27 29 45 63 81 99 100 102 118
b 142 9 27 45 63 81 99 100 102 115 118 131 147 163 179 197 215 231
b 143 99 100 102 115 118 131 147 163 179 197 215 231
b 144 102 118 131 132 134 147 150 163 167 179 183 197 199 215 231
b 145 131 132 147 150 163 167 179 181 183 197 199 215
b 146 181 197 198 199 215
b 147 163 179 180 181 197
b 148 131 132 147 150 163 165 167 181 183 199
b 149 165 181 182 183 199
b 150 131 132 147 149 150 165 167 183
b 151 149 165 166 167 183
b 152 131 147 148 149 165
b 153 147 163 164 165 181
b 154 102 118 134 150 152 167 170 183 199 215 231
b 155 134 150 152 167 168 170 183 199 215 231
b 156 134 150 151 152 168
b 157 152 167 168 170 183 199 215 231 233
b 158 215 231 232 233
b 159 152 167 168 170 183 199 215 217 233
b 160 199 215 216 217 233
b 161 152 167 168 170 183 199 201 217 233
b 162 152 167 168 170 183 185 201 217 233
b 163 167 183 184 185 201
b 164 152 168 170 185 186 201 217 233
b 165 170 185 186 201 217 233 235
b 166 170 185 186 201 217 219 235
b 167 201 217 218 219 235
b 168 170 185 186 201 203 219 235
b 169 185 201 202 203 219
b 170 170 186 203 204 219 235
b 171 170 186 187 204
b 172 203 204 219 235 236
b 173 203 204 219 220 236
b 174 217 233 234 235
b 175 152 168 169 170 186
b 176 183 199 200 201 217
b 177 102 118 134 136 152 170
b 178 102 118 119 136
b 179 136 152 153 170
b 180 118 134 135 136 152
b 181 116 132 133 134 150
b 182 97 113 114 115 131
b 183 13 29 45 47 63 64 82 100 102 118
b 184 13 29 47 64 82 84 100 102 118
b 185 84 100 101 102 118
b 186 13 29 47 64 66 82 84 100 102
b 187 66 82 83 84 100
b 188 13 29 47 48 64 66 82 84 102
b 189 13 29 31 47 48 66 84 102
b 190 13 29 30 31 47
b 191 13 31 48 66 68 84 102
b 192 68 84 85 102
b 193 13 31 48 50 66 68 84
b 194 13 31 32 48 50 66 68
b 195 32 48 49 50 66
b 196 13 15 31 32 50 68
b 197 13 14 15 31
b 198 15 32 50 51 68
b 199 15 32 33 50 51
b 200 50 66 67 68 84
b 201 48 64 65 66 82
b 202 29 45 46 47 63
b 203 9 10 11 27
b 204 11 27 28 29 45
b 205 221 237 238
b 206 205 222 223
b 207 16 17 34
1 2
2 4
3 207
3 5
4 126
5 199
6 206
6 8
7 205
7 9
8 108
9 173
10 11
11 125
11 12
12 124
12 13
13 123
13 14
14 122
14 15
15 121
15 16
16 120
16 17
17 119
17 18
18 118
18 19
19 117
19 20
20 22
20 21
22 116
22 23
23 25
23 24
25 115
25 26
26 34
26 27
27 29
27 33
27 28
29 32
29 30
29 31
34 39
34 35
35 37
35 36
37 38
39 44
39 40
40 41
40 42
40 43
44 114
44 45
45 113
45 46
46 47
47 48
48 95
48 49
49 55
49 50
50 51
50 52
50 53
50 54
55 94
55 56
56 93
56 57
57 92
57 58
58 91
58 59
59 90
59 60
60 89
60 61
61 88
61 62
62 83
62 63
63 76
63 64
64 75
64 65
65 74
65 66
66 68
66 67
68 70
68 69
70 73
70 71
71 137
71 72
76 81
76 82
76 77
77 78
77 79
77 80
83 87
83 86
83 84
83 85
95 96
95 112
96 98
96 97
98 99
98 111
99 110
99 100
100 102
100 101
102 103
102 104
104 105
104 106
106 109
106 107
107 108
125 126
127 128
128 203
128 204
128 141
129 139
130 135
131 140
132 183
132 133
133 141
134 181
134 144
134 135
135 136
136 138
137 182
137 139
138 143
139 140
140 142
141 142
142 143
144 154
144 145
145 146
145 147
145 148
148 149
148 150
148 153
150 152
150 151
154 177
154 155
155 157
155 156
157 158
157 159
159 160
159 161
161 176
161 162
162 163
162 164
164 175
164 165
165 174
165 166
166 167
166 168
168 169
168 170
170 171
170 172
172 173
177 178
177 179
177 180
183 184
183 202
184 185
184 186
186 187
186 188
188 201
188 189
189 190
189 191
191 192
191 193
193 200
193 194
194 195
194 196
196 197
196 198
198 199
